43
raw_data/mm-rcpsp/MMLIB50/J509_3.mm
Time limit set to 60 seconds
Running CP solver
/home/omastto1/General-Optimization-Solver/src/solvers/mmrcpsp.py:42(stream:276:6): Warning: Cumulative expression 'pulse': height is zero, expression is zero everywhere.
                                                                                               VarCumulAtom_419 = pulse(task_0_mode_0, 0)
/home/omastto1/General-Optimization-Solver/src/solvers/mmrcpsp.py:42(stream:276:3912): Warning: Cumulative expression 'pulse': height is zero, expression is zero everywhere.
                                                                                                  VarCumulAtom_570 = pulse(task_51_mode_0, 0)
/home/omastto1/General-Optimization-Solver/src/solvers/mmrcpsp.py:42(stream:277:6): Warning: Cumulative expression 'pulse': height is zero, expression is zero everywhere.
                                                                                               VarCumulAtom_574 = pulse(task_0_mode_0, 0)
/home/omastto1/General-Optimization-Solver/src/solvers/mmrcpsp.py:42(stream:277:3913): Warning: Cumulative expression 'pulse': height is zero, expression is zero everywhere.
                                                                                                  VarCumulAtom_725 = pulse(task_51_mode_0, 0)
 ! --------------------------------------------------- CP Optimizer 20.1.0.0 --
 ! Minimization problem - 205 variables, 267 constraints
 ! TimeLimit            = 60
 ! Workers              = 14
 ! LogVerbosity         = Terse
 ! Initial process time : 0.00s (0.00s extraction + 0.00s propagation)
 !  . Log search space  : 523.5 (before), 523.5 (after)
 !  . Memory usage      : 1.3 MB (before), 1.3 MB (after)
 ! Using parallel search with 14 workers.
 ! ----------------------------------------------------------------------------
 !          Best Branches  Non-fixed    W       Branch decision
                        0        205                 -
 + New bound is 19
 ! Using iterative diving.
 ! Using temporal relaxation.
 *            52      117  0.83s        1      (gap is 63.46%)
 *            51      316  0.83s        1      (gap is 62.75%)
 *            34     1052  0.83s        1      (gap is 44.12%)
 *            33     1226  0.83s        1      (gap is 42.42%)
 *            32     1459  0.83s        5      (gap is 40.62%)
 *            31     3448  1.59s        1      (gap is 38.71%)
 *            29     3933  1.59s        1      (gap is 34.48%)
 ! Using failure-directed search.
 *            28    47291  11.25s       7      (gap is 32.14%)
 *            27    50194  13.55s       4      (gap is 29.63%)
 ! ----------------------------------------------------------------------------
 ! Search terminated by limit, 9 solutions found.
 ! Best objective         : 27 (gap is 29.63%)
 ! Best bound             : 19
 ! ----------------------------------------------------------------------------
 ! Number of branches     : 5266563
 ! Number of fails        : 1048896
 ! Total memory usage     : 19.5 MB (19.3 MB CP Optimizer + 0.2 MB Concert)
 ! Time spent in solve    : 60.04s (60.04s engine + 0.00s extraction)
 ! Search speed (br. / s) : 87732.2
 ! ----------------------------------------------------------------------------
task_0: (start=0, end=0, size=0, length=0)
Task 0 is scheduled in mode 0 from 0 to 0
task_1: (start=1, end=5, size=4, length=4)
Task 1 is scheduled in mode 0 from 1 to 5
task_2: (start=3, end=13, size=10, length=10)
Task 2 is scheduled in mode 2 from 3 to 13
task_3: (start=1, end=5, size=4, length=4)
Task 3 is scheduled in mode 1 from 1 to 5
task_4: (start=0, end=1, size=1, length=1)
Task 4 is scheduled in mode 0 from 0 to 1
task_5: (start=0, end=3, size=3, length=3)
Task 5 is scheduled in mode 1 from 0 to 3
task_6: (start=0, end=9, size=9, length=9)
Task 6 is scheduled in mode 2 from 0 to 9
task_7: (start=1, end=3, size=2, length=2)
Task 7 is scheduled in mode 0 from 1 to 3
task_8: (start=0, end=1, size=1, length=1)
Task 8 is scheduled in mode 0 from 0 to 1
task_9: (start=0, end=1, size=1, length=1)
Task 9 is scheduled in mode 0 from 0 to 1
task_10: (start=5, end=8, size=3, length=3)
Task 10 is scheduled in mode 1 from 5 to 8
task_11: (start=3, end=6, size=3, length=3)
Task 11 is scheduled in mode 1 from 3 to 6
task_12: (start=6, end=8, size=2, length=2)
Task 12 is scheduled in mode 0 from 6 to 8
task_13: (start=0, end=1, size=1, length=1)
Task 13 is scheduled in mode 0 from 0 to 1
task_14: (start=8, end=9, size=1, length=1)
Task 14 is scheduled in mode 0 from 8 to 9
task_15: (start=9, end=15, size=6, length=6)
Task 15 is scheduled in mode 0 from 9 to 15
task_16: (start=2, end=6, size=4, length=4)
Task 16 is scheduled in mode 0 from 2 to 6
task_17: (start=5, end=9, size=4, length=4)
Task 17 is scheduled in mode 0 from 5 to 9
task_18: (start=8, end=13, size=5, length=5)
Task 18 is scheduled in mode 1 from 8 to 13
task_19: (start=11, end=12, size=1, length=1)
Task 19 is scheduled in mode 0 from 11 to 12
task_20: (start=5, end=9, size=4, length=4)
Task 20 is scheduled in mode 0 from 5 to 9
task_21: (start=15, end=16, size=1, length=1)
Task 21 is scheduled in mode 0 from 15 to 16
task_22: (start=13, end=14, size=1, length=1)
Task 22 is scheduled in mode 0 from 13 to 14
task_23: (start=9, end=11, size=2, length=2)
Task 23 is scheduled in mode 0 from 9 to 11
task_24: (start=9, end=11, size=2, length=2)
Task 24 is scheduled in mode 0 from 9 to 11
task_25: (start=15, end=16, size=1, length=1)
Task 25 is scheduled in mode 0 from 15 to 16
task_26: (start=13, end=18, size=5, length=5)
Task 26 is scheduled in mode 0 from 13 to 18
task_27: (start=20, end=23, size=3, length=3)
Task 27 is scheduled in mode 0 from 20 to 23
task_28: (start=16, end=19, size=3, length=3)
Task 28 is scheduled in mode 0 from 16 to 19
task_29: (start=1, end=2, size=1, length=1)
Task 29 is scheduled in mode 0 from 1 to 2
task_30: (start=16, end=20, size=4, length=4)
Task 30 is scheduled in mode 2 from 16 to 20
task_31: (start=11, end=18, size=7, length=7)
Task 31 is scheduled in mode 1 from 11 to 18
task_32: (start=3, end=5, size=2, length=2)
Task 32 is scheduled in mode 0 from 3 to 5
task_33: (start=23, end=27, size=4, length=4)
Task 33 is scheduled in mode 1 from 23 to 27
task_34: (start=26, end=27, size=1, length=1)
Task 34 is scheduled in mode 0 from 26 to 27
task_35: (start=16, end=25, size=9, length=9)
Task 35 is scheduled in mode 2 from 16 to 25
task_36: (start=23, end=26, size=3, length=3)
Task 36 is scheduled in mode 0 from 23 to 26
task_37: (start=19, end=25, size=6, length=6)
Task 37 is scheduled in mode 0 from 19 to 25
task_38: (start=19, end=23, size=4, length=4)
Task 38 is scheduled in mode 1 from 19 to 23
task_39: (start=19, end=20, size=1, length=1)
Task 39 is scheduled in mode 0 from 19 to 20
task_40: (start=25, end=27, size=2, length=2)
Task 40 is scheduled in mode 0 from 25 to 27
task_41: (start=18, end=25, size=7, length=7)
Task 41 is scheduled in mode 1 from 18 to 25
task_42: (start=25, end=26, size=1, length=1)
Task 42 is scheduled in mode 1 from 25 to 26
task_43: (start=13, end=15, size=2, length=2)
Task 43 is scheduled in mode 0 from 13 to 15
task_44: (start=26, end=27, size=1, length=1)
Task 44 is scheduled in mode 0 from 26 to 27
task_45: (start=20, end=27, size=7, length=7)
Task 45 is scheduled in mode 0 from 20 to 27
task_46: (start=25, end=27, size=2, length=2)
Task 46 is scheduled in mode 0 from 25 to 27
task_47: (start=14, end=15, size=1, length=1)
Task 47 is scheduled in mode 0 from 14 to 15
task_48: (start=18, end=19, size=1, length=1)
Task 48 is scheduled in mode 0 from 18 to 19
task_49: (start=16, end=19, size=3, length=3)
Task 49 is scheduled in mode 0 from 16 to 19
task_50: (start=15, end=16, size=1, length=1)
Task 50 is scheduled in mode 0 from 15 to 16
task_51: (start=27, end=27, size=0, length=0)
Task 51 is scheduled in mode 0 from 27 to 27
Feasible solution found
Objective value: 27
Solution is 42.1 % worse than the lower bound.
